
(set-logic ALL) 

(declare-datatype MyList ((Nil) (Cons (head Real) (tail MyList)) )) 
(declare-fun l0 () MyList) 
(declare-fun l1 () MyList) 
(declare-fun l2 () MyList) 
(declare-fun l3 () MyList) 
(declare-fun i0 () Real) 
(declare-fun i1 () Real) 
(assert (is-Nil Nil) )
(assert (or (is-Cons Nil) (= l3 l0) (is-Cons Nil) (is-Nil Nil)) )
(assert (or (is-Cons Nil) (is-Nil Nil) (= l2 Nil)) )
(assert (or (= l2 Nil) (= l1 Nil)) )
(assert (or (= l2 l1) (= l1 Nil) (is-Nil Nil)) )
(assert (and (= l1 l2) (= l0 Nil) (= l3 Nil) (= l1 Nil)) )
(assert (and (= l2 l2) (= l3 Nil)) )
(assert (is-Nil Nil) )
(check-sat)
